
n_res = 4;
rcap = [24, 25, 217, 192];
rtype = [1, 1, 2, 2];
n_tasks = 50;
modes =  [{1, 2, 3}, {4, 5, 6}, {7, 8, 9}, {10, 11, 12}, {13, 14, 15}, {16, 17, 18}, {19, 20, 21}, {22, 23, 24}, {25, 26, 27}, {28, 29, 30}, {31, 32, 33}, {34, 35, 36}, {37, 38, 39}, {40, 41, 42}, {43, 44, 45}, {46, 47, 48}, {49, 50, 51}, {52, 53, 54}, {55, 56, 57}, {58, 59, 60}, {61, 62, 63}, {64, 65, 66}, {67, 68, 69}, {70, 71, 72}, {73, 74, 75}, {76, 77, 78}, {79, 80, 81}, {82, 83, 84}, {85, 86, 87}, {88, 89, 90}, {91, 92, 93}, {94, 95, 96}, {97, 98, 99}, {100, 101, 102}, {103, 104, 105}, {106, 107, 108}, {109, 110, 111}, {112, 113, 114}, {115, 116, 117}, {118, 119, 120}, {121, 122, 123}, {124, 125, 126}, {127, 128, 129}, {130, 131, 132}, {133, 134, 135}, {136, 137, 138}, {139, 140, 141}, {142, 143, 144}, {145, 146, 147}, {148, 149, 150}];
succ =  [{26, 24, 20, 13, 8}, {21, 13, 11, 10}, {37, 18, 16, 15, 9}, {37, 26, 24, 21, 20, 19, 15}, {26, 21, 19, 18, 15, 11}, {25, 19, 16, 15, 11}, {19, 8}, {37, 32, 31, 25, 18, 15}, {33, 32, 28, 27, 26, 19, 17}, {26, 20, 15}, {39, 37, 33, 32, 31, 30, 29, 28, 27}, {37, 35, 33, 32, 31, 27, 25, 18}, {37, 36, 33, 32, 30, 28, 19}, {32, 23, 15}, {39, 33, 30, 28, 27}, {39, 35, 33, 31, 30, 27}, {40, 39, 38, 34, 31, 25}, {49, 48, 47, 45, 40, 39, 34, 29}, {45, 40, 39, 34, 31, 29}, {39, 33, 32, 31, 25}, {50, 39, 38, 36, 25}, {47, 46, 44, 40, 39, 38, 36, 33}, {49, 46, 45, 39, 38, 31}, {43, 40, 33, 31}, {49, 48, 47, 46, 45, 44, 43, 42, 41}, {50, 49, 48, 46, 45, 44, 43, 40}, {48, 47, 46, 43, 38, 36}, {48, 46, 43, 35, 34}, {50, 46, 44, 42, 38}, {47, 45, 43, 40}, {48, 47, 44, 42}, {49, 43, 42, 41}, {45, 42, 41}, {50, 44, 42}, {50, 42, 41}, {49, 42}, {50, 41}, {41}, {43}, {41}, {}, {}, {}, {}, {}, {}, {}, {}, {}, {}];
n_opt = 150;
dur = [1, 6, 9, 4, 4, 5, 4, 7, 8, 1, 3, 4, 6, 7, 10, 1, 1, 10, 4, 7, 8, 1, 4, 7, 5, 9, 9, 3, 5, 5, 1, 5, 10, 4, 7, 10, 2, 2, 8, 1, 1, 2, 3, 4, 6, 5, 6, 7, 4, 5, 8, 1, 7, 10, 5, 8, 8, 2, 3, 6, 3, 6, 10, 1, 4, 7, 3, 7, 8, 1, 2, 6, 4, 5, 5, 4, 5, 6, 5, 7, 8, 4, 4, 6, 4, 9, 10, 2, 7, 9, 1, 3, 6, 5, 7, 10, 1, 2, 4, 1, 4, 6, 3, 8, 9, 2, 7, 8, 2, 5, 10, 5, 5, 6, 4, 8, 10, 1, 2, 8, 1, 9, 10, 5, 7, 10, 2, 3, 8, 2, 9, 9, 2, 3, 6, 3, 8, 9, 3, 3, 4, 4, 5, 5, 5, 6, 10, 4, 5, 7];
rreq = [|4, 4, 4, 8, 8, 7, 2, 2, 2, 8, 6, 6, 3, 3, 3, 6, 6, 6, 4, 3, 3, 2, 1, 1, 6, 5, 4, 9, 8, 6, 4, 4, 3, 8, 4, 4, 9, 9, 8, 6, 3, 2, 5, 5, 4, 3, 2, 2, 2, 2, 2, 5, 3, 3, 9, 4, 4, 8, 7, 6, 7, 6, 6, 8, 7, 3, 2, 2, 2, 8, 5, 4, 10, 8, 5, 7, 5, 4, 8, 4, 3, 5, 4, 3, 7, 3, 2, 2, 1, 1, 8, 7, 7, 3, 3, 2, 2, 1, 1, 10, 8, 7, 2, 2, 2, 5, 4, 4, 5, 5, 5, 8, 3, 2, 6, 6, 4, 7, 4, 3, 7, 5, 4, 2, 2, 1, 8, 8, 7, 8, 4, 4, 7, 5, 4, 7, 7, 7, 9, 9, 8, 6, 4, 2, 5, 3, 3, 6, 5, 4
 |7, 5, 5, 7, 6, 3, 8, 8, 6, 7, 7, 5, 9, 8, 6, 3, 2, 2, 8, 6, 2, 9, 7, 1, 8, 7, 6, 7, 6, 6, 5, 3, 1, 8, 6, 6, 7, 7, 1, 6, 5, 1, 9, 8, 8, 2, 2, 2, 1, 1, 1, 8, 6, 6, 5, 4, 4, 2, 2, 2, 6, 5, 5, 8, 6, 5, 9, 9, 9, 2, 2, 2, 9, 7, 6, 5, 4, 1, 10, 10, 10, 10, 8, 7, 8, 8, 7, 3, 2, 1, 9, 5, 5, 4, 3, 2, 7, 7, 7, 3, 3, 2, 8, 6, 6, 10, 5, 3, 5, 4, 3, 4, 3, 2, 9, 7, 5, 3, 2, 2, 1, 1, 1, 4, 4, 2, 2, 2, 2, 9, 8, 7, 4, 4, 3, 4, 3, 3, 9, 9, 9, 6, 6, 6, 9, 7, 7, 5, 3, 3
 |5, 0, 0, 9, 0, 0, 0, 8, 0, 0, 6, 4, 5, 5, 0, 0, 5, 0, 0, 8, 8, 0, 6, 0, 0, 0, 1, 3, 2, 0, 7, 7, 0, 0, 4, 0, 9, 0, 6, 8, 0, 0, 0, 9, 9, 7, 6, 4, 3, 2, 1, 9, 0, 8, 0, 0, 8, 0, 5, 5, 8, 0, 7, 3, 2, 0, 7, 4, 0, 7, 0, 0, 1, 0, 1, 0, 0, 0, 0, 7, 0, 0, 6, 0, 0, 5, 5, 0, 6, 0, 0, 0, 0, 0, 3, 0, 0, 7, 2, 6, 0, 0, 0, 0, 2, 0, 3, 1, 9, 0, 1, 4, 0, 0, 0, 5, 5, 0, 8, 6, 9, 6, 2, 0, 0, 0, 0, 10, 10, 0, 0, 4, 9, 0, 0, 0, 0, 5, 9, 0, 0, 8, 5, 0, 10, 0, 8, 0, 4, 3
 |0, 3, 2, 0, 6, 6, 8, 0, 3, 4, 0, 0, 0, 0, 4, 9, 0, 9, 7, 0, 0, 9, 0, 8, 6, 3, 0, 0, 0, 3, 0, 0, 1, 5, 0, 4, 0, 5, 0, 0, 6, 4, 5, 0, 0, 0, 0, 0, 0, 0, 0, 0, 7, 0, 8, 7, 0, 8, 0, 0, 0, 7, 0, 0, 0, 2, 0, 0, 1, 0, 2, 2, 0, 8, 0, 9, 7, 4, 4, 0, 3, 1, 0, 1, 4, 0, 0, 2, 0, 2, 4, 3, 2, 5, 0, 4, 7, 0, 0, 0, 3, 1, 7, 4, 0, 4, 0, 0, 0, 1, 0, 0, 5, 3, 5, 0, 0, 9, 0, 0, 0, 0, 0, 7, 6, 5, 8, 0, 0, 9, 8, 0, 0, 4, 2, 6, 3, 0, 0, 6, 6, 0, 0, 4, 0, 6, 0, 9, 0, 0|];